p edge 150 2235
e 1 3
e 1 8
e 1 22
e 1 25
e 1 27
e 1 42
e 1 56
e 1 57
e 1 69
e 1 75
e 1 83
e 1 85
e 1 95
e 1 96
e 1 99
e 1 101
e 1 104
e 1 105
e 1 112
e 1 113
e 1 119
e 1 126
e 1 127
e 1 134
e 1 135
e 1 149
e 2 7
e 2 9
e 2 19
e 2 29
e 2 42
e 2 46
e 2 50
e 2 53
e 2 68
e 2 70
e 2 71
e 2 84
e 2 91
e 2 98
e 2 105
e 2 107
e 2 112
e 2 127
e 2 128
e 2 133
e 2 136
e 2 137
e 2 141
e 2 143
e 2 150
e 3 19
e 3 20
e 3 22
e 3 26
e 3 28
e 3 38
e 3 40
e 3 44
e 3 52
e 3 55
e 3 67
e 3 68
e 3 70
e 3 71
e 3 79
e 3 88
e 3 104
e 3 107
e 3 111
e 3 112
e 3 114
e 3 126
e 3 127
e 3 139
e 3 143
e 3 145
e 4 12
e 4 14
e 4 19
e 4 32
e 4 35
e 4 37
e 4 39
e 4 41
e 4 52
e 4 55
e 4 64
e 4 67
e 4 72
e 4 75
e 4 84
e 4 91
e 4 92
e 4 98
e 4 101
e 4 104
e 4 106
e 4 111
e 4 112
e 4 118
e 4 120
e 4 131
e 4 132
e 4 146
e 5 9
e 5 12
e 5 14
e 5 23
e 5 29
e 5 33
e 5 35
e 5 36
e 5 37
e 5 44
e 5 55
e 5 57
e 5 58
e 5 65
e 5 68
e 5 69
e 5 78
e 5 79
e 5 82
e 5 83
e 5 92
e 5 96
e 5 102
e 5 105
e 5 106
e 5 114
e 5 118
e 5 120
e 5 124
e 5 135
e 5 139
e 5 141
e 5 146
e 6 12
e 6 16
e 6 22
e 6 30
e 6 33
e 6 44
e 6 50
e 6 52
e 6 53
e 6 56
e 6 57
e 6 58
e 6 62
e 6 69
e 6 76
e 6 79
e 6 83
e 6 95
e 6 98
e 6 99
e 6 103
e 6 108
e 6 109
e 6 112
e 6 121
e 6 127
e 6 129
e 6 146
e 7 14
e 7 29
e 7 38
e 7 40
e 7 56
e 7 60
e 7 63
e 7 65
e 7 68
e 7 69
e 7 77
e 7 87
e 7 88
e 7 89
e 7 93
e 7 98
e 7 111
e 7 117
e 7 125
e 7 127
e 7 128
e 7 130
e 7 134
e 8 11
e 8 25
e 8 34
e 8 43
e 8 45
e 8 46
e 8 52
e 8 55
e 8 70
e 8 82
e 8 87
e 8 89
e 8 94
e 8 95
e 8 96
e 8 98
e 8 101
e 8 110
e 8 112
e 8 122
e 8 123
e 8 128
e 8 135
e 8 137
e 8 143
e 8 144
e 8 149
e 9 28
e 9 44
e 9 49
e 9 53
e 9 55
e 9 60
e 9 65
e 9 66
e 9 68
e 9 69
e 9 77
e 9 78
e 9 79
e 9 88
e 9 90
e 9 92
e 9 93
e 9 94
e 9 98
e 9 101
e 9 107
e 9 112
e 9 118
e 9 123
e 9 128
e 9 137
e 9 143
e 9 146
e 10 12
e 10 14
e 10 15
e 10 16
e 10 23
e 10 25
e 10 29
e 10 36
e 10 42
e 10 47
e 10 49
e 10 51
e 10 55
e 10 57
e 10 59
e 10 68
e 10 71
e 10 73
e 10 74
e 10 91
e 10 112
e 10 114
e 10 121
e 10 129
e 10 133
e 10 138
e 10 141
e 10 143
e 10 145
e 11 20
e 11 26
e 11 31
e 11 38
e 11 40
e 11 51
e 11 53
e 11 55
e 11 61
e 11 78
e 11 82
e 11 94
e 11 99
e 11 106
e 11 113
e 11 120
e 11 121
e 11 122
e 11 124
e 11 130
e 11 134
e 11 136
e 11 141
e 12 23
e 12 28
e 12 30
e 12 31
e 12 44
e 12 47
e 12 48
e 12 49
e 12 54
e 12 60
e 12 71
e 12 72
e 12 79
e 12 81
e 12 89
e 12 91
e 12 102
e 12 105
e 12 118
e 12 122
e 12 128
e 12 131
e 12 149
e 13 14
e 13 16
e 13 19
e 13 22
e 13 23
e 13 24
e 13 42
e 13 44
e 13 46
e 13 49
e 13 55
e 13 60
e 13 70
e 13 72
e 13 80
e 13 81
e 13 86
e 13 89
e 13 92
e 13 100
e 13 105
e 13 106
e 13 107
e 13 111
e 13 114
e 13 118
e 13 125
e 13 133
e 13 134
e 13 135
e 13 136
e 13 137
e 13 138
e 13 142
e 13 147
e 13 150
e 14 19
e 14 26
e 14 35
e 14 36
e 14 45
e 14 47
e 14 58
e 14 63
e 14 65
e 14 74
e 14 83
e 14 85
e 14 86
e 14 108
e 14 113
e 14 118
e 14 129
e 14 135
e 14 137
e 14 141
e 14 149
e 15 41
e 15 43
e 15 44
e 15 52
e 15 62
e 15 69
e 15 73
e 15 82
e 15 85
e 15 89
e 15 94
e 15 106
e 15 107
e 15 108
e 15 109
e 15 110
e 15 119
e 15 129
e 15 132
e 15 147
e 15 148
e 16 27
e 16 28
e 16 30
e 16 32
e 16 38
e 16 40
e 16 41
e 16 58
e 16 59
e 16 60
e 16 73
e 16 76
e 16 80
e 16 81
e 16 82
e 16 86
e 16 88
e 16 90
e 16 98
e 16 112
e 16 122
e 16 123
e 16 124
e 16 128
e 16 130
e 16 148
e 17 18
e 17 20
e 17 30
e 17 40
e 17 54
e 17 55
e 17 58
e 17 72
e 17 80
e 17 89
e 17 92
e 17 101
e 17 105
e 17 113
e 17 119
e 17 123
e 17 126
e 17 135
e 17 143
e 17 145
e 17 147
e 17 149
e 18 23
e 18 26
e 18 27
e 18 35
e 18 45
e 18 47
e 18 56
e 18 57
e 18 68
e 18 69
e 18 75
e 18 78
e 18 80
e 18 81
e 18 86
e 18 88
e 18 89
e 18 95
e 18 99
e 18 101
e 18 105
e 18 106
e 18 113
e 18 114
e 18 117
e 18 121
e 18 122
e 18 126
e 18 127
e 18 134
e 18 135
e 18 139
e 18 144
e 18 148
e 19 23
e 19 31
e 19 44
e 19 50
e 19 53
e 19 55
e 19 67
e 19 68
e 19 73
e 19 75
e 19 76
e 19 79
e 19 82
e 19 83
e 19 88
e 19 89
e 19 101
e 19 107
e 19 110
e 19 114
e 19 116
e 19 119
e 19 122
e 19 137
e 19 138
e 19 149
e 20 28
e 20 36
e 20 43
e 20 50
e 20 58
e 20 59
e 20 70
e 20 72
e 20 75
e 20 76
e 20 77
e 20 79
e 20 84
e 20 87
e 20 94
e 20 102
e 20 107
e 20 114
e 20 131
e 20 133
e 20 145
e 20 150
e 21 32
e 21 34
e 21 35
e 21 40
e 21 43
e 21 53
e 21 62
e 21 68
e 21 70
e 21 72
e 21 73
e 21 80
e 21 91
e 21 93
e 21 95
e 21 101
e 21 118
e 21 119
e 21 125
e 21 128
e 21 130
e 21 141
e 22 29
e 22 51
e 22 59
e 22 64
e 22 65
e 22 70
e 22 76
e 22 77
e 22 79
e 22 83
e 22 85
e 22 86
e 22 88
e 22 89
e 22 96
e 22 104
e 22 115
e 22 117
e 22 120
e 22 125
e 22 126
e 22 134
e 22 136
e 22 137
e 22 140
e 22 143
e 22 147
e 23 44
e 23 45
e 23 52
e 23 65
e 23 70
e 23 75
e 23 76
e 23 77
e 23 82
e 23 94
e 23 109
e 23 114
e 23 122
e 23 123
e 23 124
e 23 126
e 23 134
e 23 136
e 23 139
e 23 144
e 24 32
e 24 37
e 24 39
e 24 41
e 24 42
e 24 46
e 24 53
e 24 55
e 24 60
e 24 61
e 24 62
e 24 64
e 24 73
e 24 76
e 24 78
e 24 82
e 24 89
e 24 94
e 24 96
e 24 102
e 24 107
e 24 109
e 24 112
e 24 114
e 24 115
e 24 124
e 24 126
e 24 128
e 24 134
e 24 137
e 24 139
e 24 146
e 25 33
e 25 39
e 25 45
e 25 59
e 25 64
e 25 68
e 25 82
e 25 95
e 25 98
e 25 99
e 25 102
e 25 106
e 25 113
e 25 115
e 25 121
e 25 127
e 25 135
e 25 140
e 25 141
e 26 28
e 26 29
e 26 50
e 26 53
e 26 54
e 26 64
e 26 71
e 26 73
e 26 82
e 26 94
e 26 97
e 26 108
e 26 117
e 26 119
e 26 121
e 26 124
e 26 140
e 27 28
e 27 30
e 27 37
e 27 38
e 27 40
e 27 42
e 27 48
e 27 52
e 27 53
e 27 55
e 27 65
e 27 69
e 27 72
e 27 75
e 27 77
e 27 80
e 27 87
e 27 92
e 27 97
e 27 98
e 27 104
e 27 105
e 27 106
e 27 108
e 27 123
e 27 132
e 27 134
e 27 138
e 27 140
e 28 29
e 28 41
e 28 42
e 28 43
e 28 48
e 28 53
e 28 63
e 28 66
e 28 72
e 28 74
e 28 76
e 28 82
e 28 84
e 28 86
e 28 90
e 28 94
e 28 97
e 28 98
e 28 101
e 28 104
e 28 109
e 28 110
e 28 124
e 28 126
e 28 131
e 28 135
e 28 142
e 28 146
e 29 36
e 29 47
e 29 49
e 29 52
e 29 58
e 29 59
e 29 60
e 29 61
e 29 62
e 29 64
e 29 68
e 29 69
e 29 78
e 29 80
e 29 84
e 29 86
e 29 91
e 29 95
e 29 101
e 29 113
e 29 114
e 29 128
e 29 129
e 29 130
e 29 132
e 29 133
e 29 140
e 30 37
e 30 42
e 30 46
e 30 49
e 30 53
e 30 55
e 30 58
e 30 73
e 30 85
e 30 86
e 30 87
e 30 89
e 30 91
e 30 101
e 30 108
e 30 112
e 30 115
e 30 117
e 30 123
e 30 126
e 30 127
e 30 137
e 30 139
e 30 142
e 30 145
e 30 146
e 30 149
e 31 45
e 31 47
e 31 52
e 31 53
e 31 54
e 31 66
e 31 69
e 31 70
e 31 73
e 31 75
e 31 88
e 31 90
e 31 99
e 31 104
e 31 108
e 31 110
e 31 115
e 31 119
e 31 127
e 31 128
e 31 148
e 32 45
e 32 50
e 32 70
e 32 74
e 32 75
e 32 79
e 32 80
e 32 81
e 32 108
e 32 113
e 32 121
e 32 123
e 32 127
e 32 129
e 32 138
e 32 148
e 32 149
e 33 38
e 33 46
e 33 53
e 33 57
e 33 59
e 33 62
e 33 65
e 33 66
e 33 70
e 33 81
e 33 82
e 33 93
e 33 94
e 33 96
e 33 104
e 33 106
e 33 109
e 33 111
e 33 114
e 33 118
e 33 125
e 33 131
e 34 35
e 34 37
e 34 46
e 34 50
e 34 51
e 34 52
e 34 55
e 34 57
e 34 59
e 34 60
e 34 65
e 34 70
e 34 82
e 34 88
e 34 98
e 34 108
e 34 110
e 34 114
e 34 120
e 34 122
e 34 128
e 34 133
e 34 139
e 34 148
e 34 149
e 35 39
e 35 42
e 35 43
e 35 48
e 35 55
e 35 58
e 35 69
e 35 74
e 35 78
e 35 83
e 35 84
e 35 86
e 35 89
e 35 96
e 35 97
e 35 99
e 35 102
e 35 104
e 35 109
e 35 115
e 35 119
e 35 123
e 35 130
e 35 133
e 35 135
e 35 136
e 35 141
e 35 148
e 36 48
e 36 56
e 36 60
e 36 66
e 36 67
e 36 74
e 36 79
e 36 83
e 36 85
e 36 87
e 36 88
e 36 90
e 36 92
e 36 96
e 36 97
e 36 98
e 36 101
e 36 102
e 36 106
e 36 112
e 36 115
e 36 116
e 36 122
e 36 125
e 36 126
e 36 132
e 36 142
e 36 145
e 36 147
e 37 39
e 37 44
e 37 50
e 37 52
e 37 56
e 37 62
e 37 68
e 37 79
e 37 82
e 37 84
e 37 99
e 37 102
e 37 114
e 37 118
e 37 122
e 37 129
e 37 131
e 37 150
e 38 40
e 38 43
e 38 49
e 38 51
e 38 56
e 38 60
e 38 64
e 38 65
e 38 67
e 38 70
e 38 77
e 38 81
e 38 83
e 38 84
e 38 91
e 38 96
e 38 97
e 38 107
e 38 111
e 38 113
e 38 114
e 38 117
e 38 121
e 38 125
e 38 127
e 38 130
e 39 41
e 39 45
e 39 48
e 39 50
e 39 52
e 39 56
e 39 57
e 39 58
e 39 61
e 39 68
e 39 71
e 39 73
e 39 87
e 39 89
e 39 104
e 39 105
e 39 109
e 39 113
e 39 117
e 39 123
e 39 132
e 39 144
e 39 145
e 39 146
e 39 149
e 40 42
e 40 53
e 40 54
e 40 58
e 40 64
e 40 77
e 40 94
e 40 100
e 40 101
e 40 102
e 40 105
e 40 107
e 40 113
e 40 116
e 40 134
e 40 136
e 40 138
e 41 44
e 41 52
e 41 53
e 41 57
e 41 58
e 41 64
e 41 65
e 41 74
e 41 76
e 41 78
e 41 79
e 41 81
e 41 85
e 41 91
e 41 97
e 41 109
e 41 118
e 41 121
e 41 126
e 41 133
e 41 141
e 41 143
e 41 148
e 42 44
e 42 46
e 42 50
e 42 66
e 42 71
e 42 78
e 42 96
e 42 105
e 42 106
e 42 111
e 42 120
e 42 128
e 42 140
e 42 144
e 42 148
e 42 150
e 43 51
e 43 53
e 43 59
e 43 78
e 43 79
e 43 81
e 43 87
e 43 94
e 43 95
e 43 96
e 43 100
e 43 102
e 43 105
e 43 106
e 43 107
e 43 110
e 43 113
e 43 114
e 43 118
e 43 119
e 43 137
e 43 145
e 43 147
e 43 148
e 44 48
e 44 51
e 44 56
e 44 57
e 44 63
e 44 69
e 44 70
e 44 73
e 44 92
e 44 102
e 44 103
e 44 104
e 44 107
e 44 108
e 44 111
e 44 115
e 44 116
e 44 121
e 44 133
e 44 135
e 44 143
e 45 53
e 45 57
e 45 60
e 45 69
e 45 76
e 45 78
e 45 80
e 45 81
e 45 86
e 45 92
e 45 103
e 45 113
e 45 117
e 45 119
e 45 129
e 45 134
e 45 140
e 45 143
e 45 150
e 46 50
e 46 54
e 46 57
e 46 58
e 46 69
e 46 70
e 46 72
e 46 74
e 46 85
e 46 86
e 46 88
e 46 90
e 46 92
e 46 94
e 46 96
e 46 102
e 46 109
e 46 110
e 46 122
e 46 127
e 46 128
e 46 131
e 46 135
e 46 137
e 46 146
e 46 150
e 47 48
e 47 60
e 47 67
e 47 69
e 47 72
e 47 90
e 47 91
e 47 96
e 47 101
e 47 104
e 47 105
e 47 108
e 47 109
e 47 114
e 47 117
e 47 121
e 47 124
e 47 125
e 47 127
e 47 129
e 47 130
e 47 131
e 47 133
e 47 135
e 47 141
e 47 144
e 47 147
e 47 149
e 48 49
e 48 50
e 48 59
e 48 64
e 48 68
e 48 77
e 48 80
e 48 81
e 48 85
e 48 91
e 48 94
e 48 96
e 48 103
e 48 112
e 48 113
e 48 114
e 48 115
e 48 123
e 48 131
e 48 133
e 48 135
e 48 141
e 48 142
e 48 144
e 48 150
e 49 54
e 49 55
e 49 56
e 49 61
e 49 64
e 49 66
e 49 75
e 49 91
e 49 98
e 49 100
e 49 101
e 49 108
e 49 110
e 49 111
e 49 115
e 49 124
e 49 132
e 49 134
e 49 137
e 49 145
e 50 53
e 50 63
e 50 65
e 50 67
e 50 68
e 50 69
e 50 71
e 50 81
e 50 96
e 50 99
e 50 107
e 50 108
e 50 114
e 50 116
e 50 120
e 50 128
e 50 131
e 50 134
e 50 135
e 50 137
e 50 139
e 50 145
e 50 147
e 50 149
e 51 64
e 51 68
e 51 70
e 51 75
e 51 76
e 51 93
e 51 95
e 51 103
e 51 106
e 51 110
e 51 115
e 51 121
e 51 123
e 51 135
e 51 142
e 51 145
e 51 149
e 51 150
e 52 54
e 52 61
e 52 64
e 52 72
e 52 85
e 52 87
e 52 101
e 52 102
e 52 103
e 52 106
e 52 110
e 52 115
e 52 119
e 52 120
e 52 123
e 52 141
e 53 58
e 53 60
e 53 61
e 53 62
e 53 67
e 53 71
e 53 79
e 53 87
e 53 88
e 53 91
e 53 93
e 53 94
e 53 96
e 53 97
e 53 98
e 53 99
e 53 102
e 53 105
e 53 106
e 53 111
e 53 113
e 53 119
e 53 121
e 53 123
e 53 124
e 53 128
e 53 129
e 53 130
e 53 134
e 53 137
e 53 140
e 53 143
e 53 145
e 53 146
e 54 57
e 54 60
e 54 65
e 54 69
e 54 73
e 54 77
e 54 79
e 54 89
e 54 91
e 54 93
e 54 94
e 54 100
e 54 109
e 54 119
e 54 120
e 54 124
e 54 128
e 54 134
e 54 147
e 54 149
e 55 69
e 55 73
e 55 82
e 55 83
e 55 86
e 55 95
e 55 99
e 55 104
e 55 110
e 55 111
e 55 112
e 55 114
e 55 118
e 55 124
e 55 125
e 55 127
e 55 140
e 55 143
e 55 146
e 55 149
e 56 59
e 56 64
e 56 67
e 56 71
e 56 79
e 56 81
e 56 85
e 56 86
e 56 91
e 56 95
e 56 99
e 56 101
e 56 105
e 56 108
e 56 110
e 56 119
e 56 120
e 56 123
e 56 133
e 56 139
e 56 140
e 56 148
e 56 149
e 57 60
e 57 66
e 57 72
e 57 74
e 57 81
e 57 84
e 57 90
e 57 92
e 57 97
e 57 108
e 57 109
e 57 111
e 57 113
e 57 122
e 57 123
e 57 127
e 58 65
e 58 76
e 58 87
e 58 97
e 58 101
e 58 106
e 58 109
e 58 119
e 58 123
e 58 131
e 58 147
e 58 148
e 58 149
e 59 60
e 59 61
e 59 65
e 59 70
e 59 79
e 59 82
e 59 85
e 59 87
e 59 89
e 59 93
e 59 105
e 59 106
e 59 107
e 59 109
e 59 112
e 59 113
e 59 114
e 59 116
e 59 118
e 59 120
e 59 125
e 59 128
e 59 130
e 59 139
e 59 144
e 59 149
e 60 61
e 60 62
e 60 71
e 60 74
e 60 81
e 60 83
e 60 101
e 60 113
e 60 117
e 60 120
e 60 123
e 60 125
e 60 128
e 60 132
e 60 133
e 60 138
e 60 144
e 60 147
e 61 63
e 61 67
e 61 76
e 61 78
e 61 79
e 61 93
e 61 106
e 61 107
e 61 109
e 61 118
e 61 120
e 61 123
e 61 130
e 61 140
e 61 148
e 62 64
e 62 65
e 62 75
e 62 81
e 62 96
e 62 97
e 62 98
e 62 106
e 62 111
e 62 114
e 62 116
e 62 124
e 62 126
e 62 128
e 62 131
e 62 144
e 62 149
e 62 150
e 63 74
e 63 77
e 63 78
e 63 79
e 63 83
e 63 88
e 63 97
e 63 101
e 63 106
e 63 115
e 63 122
e 63 125
e 63 126
e 63 128
e 63 134
e 63 135
e 63 149
e 64 66
e 64 72
e 64 94
e 64 102
e 64 104
e 64 109
e 64 124
e 64 130
e 64 139
e 64 140
e 64 147
e 65 72
e 65 77
e 65 87
e 65 88
e 65 97
e 65 98
e 65 100
e 65 106
e 65 110
e 65 111
e 65 115
e 65 117
e 65 121
e 65 122
e 65 124
e 65 139
e 65 141
e 65 143
e 65 146
e 66 76
e 66 77
e 66 81
e 66 94
e 66 98
e 66 106
e 66 107
e 66 108
e 66 109
e 66 111
e 66 120
e 66 122
e 66 123
e 66 128
e 66 133
e 66 146
e 67 70
e 67 73
e 67 83
e 67 92
e 67 103
e 67 106
e 67 108
e 67 110
e 67 112
e 67 114
e 67 120
e 67 125
e 67 138
e 67 142
e 67 150
e 68 73
e 68 74
e 68 77
e 68 79
e 68 80
e 68 84
e 68 88
e 68 98
e 68 101
e 68 102
e 68 110
e 68 126
e 68 131
e 68 133
e 68 137
e 68 140
e 69 72
e 69 73
e 69 75
e 69 81
e 69 83
e 69 87
e 69 93
e 69 102
e 69 105
e 69 112
e 69 120
e 69 127
e 69 128
e 69 133
e 69 135
e 69 136
e 69 148
e 70 74
e 70 84
e 70 89
e 70 93
e 70 97
e 70 99
e 70 106
e 70 108
e 70 113
e 70 116
e 70 117
e 70 122
e 70 125
e 70 126
e 70 128
e 70 129
e 70 130
e 70 134
e 70 142
e 71 84
e 71 87
e 71 88
e 71 98
e 71 102
e 71 103
e 71 105
e 71 107
e 71 109
e 71 117
e 71 119
e 71 120
e 71 132
e 71 134
e 71 141
e 71 142
e 71 143
e 71 144
e 71 149
e 72 76
e 72 77
e 72 83
e 72 85
e 72 93
e 72 97
e 72 98
e 72 100
e 72 109
e 72 110
e 72 111
e 72 113
e 72 115
e 72 119
e 72 122
e 72 123
e 72 124
e 72 141
e 72 149
e 73 74
e 73 79
e 73 80
e 73 84
e 73 96
e 73 100
e 73 110
e 73 112
e 73 118
e 73 127
e 73 132
e 73 136
e 73 137
e 74 75
e 74 77
e 74 78
e 74 83
e 74 84
e 74 89
e 74 94
e 74 102
e 74 108
e 74 112
e 74 114
e 74 118
e 74 125
e 74 133
e 74 137
e 74 139
e 74 149
e 75 80
e 75 82
e 75 90
e 75 91
e 75 105
e 75 112
e 75 114
e 75 130
e 75 135
e 75 143
e 75 144
e 75 148
e 76 79
e 76 84
e 76 90
e 76 94
e 76 99
e 76 103
e 76 106
e 76 111
e 76 121
e 76 129
e 76 133
e 76 146
e 76 149
e 77 78
e 77 82
e 77 83
e 77 85
e 77 86
e 77 89
e 77 106
e 77 112
e 77 115
e 77 117
e 77 120
e 77 125
e 77 126
e 77 144
e 78 80
e 78 85
e 78 86
e 78 88
e 78 89
e 78 93
e 78 109
e 78 111
e 78 114
e 78 116
e 78 117
e 78 123
e 78 126
e 78 131
e 78 134
e 78 139
e 78 141
e 78 149
e 78 150
e 79 84
e 79 92
e 79 96
e 79 101
e 79 107
e 79 108
e 79 125
e 79 136
e 79 140
e 79 141
e 79 144
e 79 145
e 79 146
e 80 97
e 80 99
e 80 106
e 80 118
e 80 121
e 80 125
e 80 132
e 80 137
e 80 138
e 80 144
e 80 146
e 80 150
e 81 82
e 81 97
e 81 98
e 81 109
e 81 111
e 81 112
e 81 117
e 81 127
e 81 133
e 81 136
e 81 139
e 81 140
e 81 146
e 82 92
e 82 102
e 82 112
e 82 115
e 82 117
e 82 119
e 82 121
e 82 123
e 82 125
e 82 131
e 82 134
e 82 146
e 83 84
e 83 93
e 83 95
e 83 98
e 83 100
e 83 103
e 83 104
e 83 125
e 83 126
e 83 128
e 83 130
e 83 144
e 84 107
e 84 111
e 84 128
e 84 129
e 84 137
e 84 145
e 84 146
e 85 87
e 85 109
e 85 112
e 85 116
e 85 121
e 85 122
e 85 127
e 85 130
e 85 141
e 85 143
e 85 147
e 86 87
e 86 88
e 86 99
e 86 102
e 86 107
e 86 108
e 86 109
e 86 110
e 86 112
e 86 119
e 86 121
e 86 133
e 86 135
e 86 136
e 86 141
e 86 145
e 86 149
e 87 92
e 87 99
e 87 103
e 87 106
e 87 109
e 87 127
e 87 142
e 87 150
e 88 92
e 88 95
e 88 102
e 88 106
e 88 107
e 88 109
e 88 110
e 88 113
e 88 120
e 88 126
e 88 128
e 88 134
e 88 139
e 88 142
e 88 143
e 88 147
e 89 98
e 89 106
e 89 111
e 89 122
e 89 123
e 89 124
e 89 127
e 89 129
e 89 132
e 89 133
e 89 134
e 89 139
e 89 142
e 89 143
e 90 91
e 90 102
e 90 105
e 90 106
e 90 121
e 90 128
e 90 133
e 90 138
e 90 149
e 91 92
e 91 99
e 91 106
e 91 118
e 91 119
e 91 121
e 91 124
e 91 129
e 91 130
e 91 133
e 91 137
e 91 140
e 91 142
e 92 93
e 92 107
e 92 111
e 92 117
e 92 121
e 92 123
e 92 127
e 92 142
e 92 147
e 93 97
e 93 101
e 93 102
e 93 108
e 93 109
e 93 119
e 93 121
e 93 126
e 93 128
e 93 131
e 93 136
e 93 142
e 93 143
e 93 144
e 93 147
e 93 150
e 94 101
e 94 112
e 94 117
e 94 123
e 94 124
e 94 125
e 94 127
e 94 128
e 94 130
e 94 131
e 94 142
e 94 143
e 94 146
e 94 148
e 95 96
e 95 97
e 95 98
e 95 100
e 95 103
e 95 106
e 95 109
e 95 111
e 95 115
e 95 116
e 95 121
e 95 123
e 95 134
e 95 135
e 95 136
e 95 140
e 95 146
e 96 98
e 96 99
e 96 108
e 96 111
e 96 114
e 96 115
e 96 117
e 96 132
e 96 138
e 96 140
e 96 144
e 96 146
e 96 150
e 97 98
e 97 102
e 97 104
e 97 114
e 97 119
e 97 122
e 97 125
e 97 130
e 97 133
e 97 139
e 97 143
e 97 144
e 97 146
e 97 150
e 98 100
e 98 109
e 98 111
e 98 115
e 98 117
e 98 121
e 98 127
e 98 135
e 98 136
e 98 139
e 98 141
e 98 149
e 99 115
e 99 120
e 99 121
e 99 122
e 99 125
e 99 130
e 99 133
e 99 135
e 99 137
e 99 146
e 100 121
e 100 123
e 100 125
e 100 127
e 100 132
e 100 140
e 100 147
e 100 150
e 101 108
e 101 110
e 101 123
e 101 127
e 101 135
e 101 141
e 101 142
e 101 148
e 101 150
e 102 129
e 102 130
e 102 134
e 102 139
e 102 143
e 102 145
e 102 146
e 102 148
e 102 150
e 103 109
e 103 119
e 103 125
e 103 137
e 103 141
e 103 147
e 103 150
e 104 115
e 104 118
e 104 119
e 104 122
e 104 131
e 104 137
e 104 140
e 104 144
e 104 147
e 105 111
e 105 114
e 105 119
e 105 125
e 105 126
e 105 127
e 105 134
e 105 137
e 106 108
e 106 115
e 106 119
e 106 122
e 106 138
e 106 139
e 106 148
e 106 150
e 107 108
e 107 125
e 107 126
e 107 130
e 107 133
e 107 140
e 107 145
e 108 114
e 108 120
e 108 127
e 108 129
e 108 144
e 108 148
e 109 111
e 109 116
e 109 118
e 109 120
e 109 121
e 109 122
e 109 124
e 109 125
e 109 132
e 109 136
e 109 138
e 109 143
e 110 130
e 110 133
e 110 135
e 110 139
e 110 149
e 111 121
e 111 124
e 111 127
e 111 129
e 111 132
e 111 134
e 111 135
e 111 137
e 111 150
e 112 114
e 112 126
e 112 128
e 112 131
e 112 136
e 112 141
e 112 144
e 112 150
e 113 117
e 113 118
e 113 126
e 113 134
e 113 135
e 113 142
e 114 119
e 114 120
e 114 122
e 114 123
e 114 124
e 114 128
e 114 133
e 114 136
e 114 144
e 114 147
e 115 120
e 115 133
e 115 140
e 115 143
e 115 149
e 116 117
e 116 119
e 116 120
e 116 122
e 116 127
e 116 130
e 116 131
e 116 138
e 116 140
e 116 145
e 117 121
e 117 124
e 117 130
e 117 131
e 117 133
e 117 143
e 118 125
e 118 142
e 118 143
e 118 145
e 118 146
e 119 123
e 119 128
e 119 132
e 119 137
e 119 139
e 119 142
e 119 145
e 119 148
e 119 150
e 120 121
e 120 128
e 120 133
e 120 145
e 120 147
e 120 148
e 121 130
e 121 133
e 121 138
e 121 140
e 122 126
e 122 135
e 122 137
e 122 141
e 122 146
e 123 125
e 123 128
e 123 130
e 123 136
e 123 139
e 123 141
e 123 147
e 124 126
e 124 142
e 124 144
e 124 147
e 124 150
e 125 127
e 125 129
e 125 135
e 125 137
e 125 142
e 126 132
e 126 133
e 126 136
e 126 139
e 126 141
e 126 143
e 126 147
e 126 150
e 127 129
e 127 130
e 127 134
e 127 137
e 127 139
e 127 145
e 127 149
e 128 129
e 128 132
e 128 137
e 128 142
e 128 149
e 129 130
e 129 134
e 129 141
e 129 145
e 130 138
e 130 144
e 130 145
e 130 148
e 131 133
e 131 136
e 131 138
e 131 139
e 131 145
e 131 150
e 132 135
e 132 139
e 132 140
e 133 136
e 133 147
e 134 137
e 134 139
e 134 143
e 135 138
e 135 143
e 135 146
e 135 147
e 136 137
e 136 145
e 137 143
e 137 145
e 137 146
e 138 139
e 138 141
e 138 148
e 139 142
e 139 150
e 140 144
e 140 150
e 141 145
e 142 146
e 143 148
e 144 145
e 149 150
